robust/generate/spp_dkp_Lefebvre_et_al_2026/src/shortest_path_3_10.kp
52
85

[11.66 0.37 2.99 8.76 1.39 8.79]

[25 39 77 60 15 85]
